1007.15,56.22,67.38
1172.36,48.3,57.89
1032.67,54.83,65.72
1051.31,53.86,64.55
1037.53,54.58,65.41
1048.56,54.0,64.72
1088.58,52.02,62.34
933.92,60.63,72.67
976.05,58.02,69.53
1023.5,55.33,66.31
961.86,58.87,70.56
1111.65,50.94,61.05
1059.12,53.47,64.08
1036.74,54.62,65.46
1139.66,49.69,59.55
1088.2,52.04,62.36
1045.1,54.18,64.94
1076.48,52.6,63.04
1025.89,55.2,66.15
1112.08,50.92,61.03
